(set-logic ALL)
(set-option :produce-models true)
(declare-sort BoundSet 0)
(declare-sort UnboundSet 0)
(set-option :finite-model-find true)
(declare-fun IsInThisPicture (BoundSet) Bool)
(declare-fun IsOutside (BoundSet) Bool)
(assert (not (=> (exists ((a BoundSet)) (IsInThisPicture a)) (exists ((b BoundSet)) (IsOutside b)))))
(check-sat)
(get-model)